\ENCODING=ISO-8859-1
\Problem name: instances

Maximize
 obj:
Subject To
 c1: 58 x1 + 70 x2 + 45 x3 + 97 x4 + 41 x5 + 30 x6 + 11 x8 + 40 x9 + 3 x10
     <= 171
 c2: 30 x1 + 63 x2 + 82 x3 + 62 x4 - 4 x5 + 93 x6 + 87 x7 + 2 x8 + 4 x9 + 3 x10
     <= 242
 c3: 32 x1 + 13 x2 + 34 x3 + 84 x4 + 77 x5 + 66 x6 + 8 x7 + 36 x8 + 17 x9
     + 29 x10 <= 251
 c4: 83 x1 + 94 x2 + 68 x3 + 82 x4 + 42 x5 - 100 x7 + 45 x8 + 80 x9 + 71 x10
     <= 304
 c5: 36 x1 - 19 x2 + 45 x3 - 17 x5 + 58 x6 + 95 x8 - 92 x9 + 7 x10 <= 112
Bounds
      x1 >= 0
      x2 >= 0
      x3 >= 0
      x4 >= 0
      x5 >= 0
      x6 >= 0
      x7 >= 0
      x8 >= 0
      x9 >= 0
      x10 >= 0
Generals
 x1  x2  x3  x4  x5  x6  x7  x8  x9  x10 
End
